N = 26;
M = 82;
Edge_Start = [1, 1, 2, 3, 4, 4, 5, 5, 6, 7, 7, 8, 8, 9, 9, 10, 10, 10, 11, 11, 12, 12, 13, 13, 14, 15, 16, 17, 18, 18, 19, 20, 21, 21, 22, 22, 23, 24, 25, 26, 26, 7, 14, 4, 4, 3, 5, 4, 22, 1, 9, 16, 15, 25, 8, 15, 7, 14, 22, 12, 19, 19, 24, 1, 24, 10, 26, 6, 20, 11, 17, 13, 23, 2, 5, 5, 10, 18, 1, 21, 2, 25];
Edge_End = [7, 14, 4, 4, 3, 5, 4, 22, 1, 9, 16, 15, 25, 8, 15, 7, 14, 22, 12, 19, 19, 24, 1, 24, 10, 26, 6, 20, 11, 17, 13, 23, 2, 5, 5, 10, 18, 1, 21, 2, 25, 1, 1, 2, 3, 4, 4, 5, 5, 6, 7, 7, 8, 8, 9, 9, 10, 10, 10, 11, 11, 12, 12, 13, 13, 14, 15, 16, 17, 18, 18, 19, 20, 21, 21, 22, 22, 23, 24, 25, 26, 26];
L = [1, 1, 1, 1, 1, 1, 1, 1, 1, 1, 1, 1, 1, 1, 1, 1, 1, 1, 1, 1, 1, 1, 1, 1, 1, 1, 1, 1, 1, 1, 1, 1, 1, 1, 1, 1, 1, 1, 1, 1, 1, 1, 1, 1, 1, 1, 1, 1, 1, 1, 1, 1, 1, 1, 1, 1, 1, 1, 1, 1, 1, 1, 1, 1, 1, 1, 1, 1, 1, 1, 1, 1, 1, 1, 1, 1, 1, 1, 1, 1, 1, 1];
T = [1, 1, 1, 1, 1, 1, 1, 1, 1, 1, 1, 1, 1, 1, 1, 1, 1, 1, 1, 1, 1, 1, 1, 1, 1, 1, 1, 1, 1, 1, 1, 1, 1, 1, 1, 1, 1, 1, 1, 1, 1, 1, 1, 1, 1, 1, 1, 1, 1, 1, 1, 1, 1, 1, 1, 1, 1, 1, 1, 1, 1, 1, 1, 1, 1, 1, 1, 1, 1, 1, 1, 1, 1, 1, 1, 1, 1, 1, 1, 1, 1, 1];
Lower_Bound = [7, 12, 13, 12, 11, 10, 8, 10, 9, 9, 4, 5, 6, 8, 10, 9, 0, 3, 5, 1, 12, 10, 2, 6, 11, 11];
Upper_Bound = [7, 12, 13, 12, 11, 10, 8, 10, 9, 9, 4, 5, 6, 8, 10, 9, 0, 3, 5, 1, 12, 10, 2, 6, 11, 11];
Start = 17;
End = 3;
Time = 13;
